BEGIN IONS
PEPMASS=285.144
CHARGE=1
MSLEVEL=2
SOURCE_INSTRUMENT=LC-ESI-qTof
FILENAME=NCP002928_A2_B11_BA2_01_15696.mzXML
SEQ=*..*
IONMODE=Positive
ORGANISM=GNPS-NIH-CLINICALCOLLECTION2
NAME=Phenergan [M+H]
PI=Dorrestein
DATACOLLECTOR=Garg_Neha
SMILES=N/A
INCHI=CC(CN1c2ccccc2Sc3ccccc13)N(C)C
INCHIAUX=N/A
PUBMED=N/A
SUBMITUSER=negarg
LIBRARYQUALITY=1
SPECTRUMID=CCMSLIB00000076959
SCANS=1213
45.13221	160.0
45.628723	136.0
45.754635	144.0
45.778702	160.0
45.9622	140.0
46.420776	200.0
47.32695	196.0
47.378994	180.0
48.495197	176.0
48.513218	152.0
48.957848	176.0
49.833523	160.0
50.009308	196.0
50.487598	240.0
50.936905	148.0
51.147358	176.0
51.265572	180.0
51.596725	196.0
53.652676	172.0
53.759151	172.0
54.764915	168.0
56.383659	176.0
56.805904	160.0
57.100307	192.0
57.163494	228.0
57.818455	188.0
57.833588	144.0
59.131916	144.0
59.179371	148.0
59.395458	192.0
60.337929	236.0
61.382904	144.0
61.499912	200.0
61.718628	184.0
61.729576	204.0
62.499775	156.0
62.646194	176.0
62.739174	148.0
62.920605	172.0
63.772858	164.0
64.09433	140.0
64.126205	228.0
64.169243	160.0
64.541275	196.0
65.03791	144.0
65.272469	344.0
65.726723	148.0
65.884949	148.0
67.259018	196.0
67.309402	140.0
67.919861	160.0
68.282852	172.0
68.658356	156.0
69.020004	192.0
69.109322	240.0
71.33419	140.0
71.520912	188.0
72.551361	204.0
72.984314	192.0
73.883148	244.0
74.151344	256.0
74.728981	176.0
74.785774	156.0
75.403236	140.0
76.134346	148.0
76.226418	152.0
76.429863	176.0
77.312859	184.0
77.833496	144.0
77.903755	148.0
77.945923	204.0
78.148132	212.0
78.465157	176.0
79.47509	172.0
79.608223	168.0
79.82502	168.0
79.921074	172.0
80.075951	148.0
80.337982	148.0
81.710312	180.0
82.666634	156.0
82.992691	188.0
84.517273	148.0
84.677673	116.0
85.364746	148.0
85.926537	240.0
86.098747	1052.0
86.464264	188.0
87.111374	204.0
88.180931	156.0
90.131638	168.0
90.158089	152.0
90.337715	248.0
91.154892	152.0
91.621452	152.0
92.273766	168.0
92.344521	160.0
92.760025	164.0
92.829048	212.0
92.86142	164.0
92.917282	152.0
93.176468	192.0
94.539719	188.0
95.373703	192.0
95.50592	180.0
95.831032	220.0
95.856361	156.0
96.123512	184.0
97.027161	160.0
97.1409	196.0
97.500221	288.0
98.341209	152.0
98.940163	180.0
99.013107	124.0
99.138237	140.0
99.681976	144.0
99.920578	240.0
100.759926	148.0
101.227974	164.0
102.070412	200.0
102.205544	184.0
103.113022	152.0
103.242409	252.0
103.284889	144.0
103.398193	148.0
103.661461	140.0
104.337364	152.0
104.971931	208.0
105.06881	1244.0
105.286911	188.0
106.066521	332.0
107.100006	144.0
108.059944	204.0
108.540482	160.0
109.011871	508.0
109.101067	140.0
109.284088	172.0
109.686028	188.0
109.915443	148.0
110.739128	156.0
111.124847	144.0
111.58271	180.0
111.673134	180.0
111.799362	196.0
111.993057	168.0
112.602608	188.0
112.892143	232.0
113.058121	148.0
113.211693	208.0
114.754547	156.0
115.053917	196.0
115.129944	160.0
116.498627	204.0
117.055687	180.0
117.178467	180.0
117.76738	148.0
118.11322	184.0
118.973526	168.0
119.773781	184.0
121.636826	184.0
122.019073	196.0
122.800812	152.0
123.60717	152.0
123.695702	156.0
123.957047	176.0
124.019257	320.0
124.420609	188.0
126.205254	160.0
126.458046	168.0
126.475952	140.0
127.054108	152.0
128.421783	164.0
128.530075	188.0
129.054108	172.0
129.185287	152.0
130.065186	376.0
130.103104	148.0
130.392639	212.0
130.748642	140.0
131.072952	628.0
131.193039	160.0
131.521286	140.0
134.263092	156.0
134.697006	140.0
134.972031	164.0
136.021469	544.0
136.25145	192.0
137.63028	184.0
137.959702	236.0
138.049423	204.0
138.254425	152.0
138.390182	156.0
139.051254	176.0
139.396469	192.0
139.638611	176.0
139.742126	172.0
139.826843	140.0
141.06044	144.0
141.199936	144.0
142.411072	204.0
142.563126	184.0
142.876984	160.0
143.357956	156.0
144.942276	260.0
147.025894	492.0
147.430527	144.0
147.793259	168.0
148.02533	164.0
148.03125	300.0
148.602524	152.0
152.126678	140.0
152.888641	196.0
154.065735	724.0
155.069214	144.0
155.595306	192.0
155.82132	176.0
156.005219	236.0
156.271332	200.0
156.32608	160.0
157.323059	148.0
157.845245	140.0
158.623886	172.0
159.113083	168.0
159.384338	160.0
159.444641	152.0
159.831909	144.0
160.048386	156.0
160.557419	160.0
162.037064	4136.0
162.403732	204.0
163.038193	380.0
163.480957	168.0
163.572586	160.0
164.02269	200.0
164.033432	140.0
164.038269	232.0
165.065109	156.0
165.129044	236.0
165.83313	160.0
165.856201	192.0
166.027985	220.0
166.065842	676.0
166.281967	156.0
166.682587	160.0
167.068405	148.0
167.245819	164.0
168.088562	160.0
168.116943	188.0
169.189621	192.0
169.544479	188.0
169.689636	168.0
169.720749	164.0
169.936035	200.0
171.026672	372.0
171.605835	156.0
172.027328	196.0
172.511749	152.0
173.021896	152.0
173.598343	220.0
174.914642	168.0
175.143723	140.0
177.159256	188.0
177.45874	140.0
177.843399	180.0
178.074387	164.0
178.337433	156.0
178.39856	192.0
179.087753	156.0
180.080933	348.0
180.101318	176.0
180.309723	140.0
181.08342	152.0
181.627029	260.0
181.983963	188.0
182.451447	148.0
182.556305	188.0
183.55806	172.0
183.822418	160.0
185.073944	192.0
185.293335	152.0
185.320435	200.0
185.352936	200.0
186.101578	164.0
186.40036	156.0
186.89798	140.0
187.074875	168.0
188.135345	236.0
188.878632	148.0
189.009949	304.0
191.987747	144.0
192.077698	404.0
192.335388	164.0
193.087189	248.0
193.398926	156.0
194.103241	168.0
194.388962	168.0
194.963806	168.0
195.102783	164.0
195.282913	196.0
196.079803	228.0
196.205154	132.0
196.609695	188.0
196.939499	96.0
197.027863	676.0
197.13887	132.0
197.458145	208.0
197.596085	256.0
197.646439	152.0
197.739624	144.0
197.806854	140.0
197.895706	148.0
197.934265	184.0
197.985077	140.0
198.004288	140.0
198.03804	150772.0
198.309433	236.0
198.346252	168.0
198.497269	340.0
198.530487	292.0
198.592102	192.0
198.641556	128.0
198.801605	156.0
198.884216	144.0
198.926773	148.0
199.040451	16092.0
199.120285	188.0
199.181641	136.0
199.459351	100.0
199.499527	120.0
199.579056	180.0
199.87912	148.0
200.033432	4772.0
200.089203	164.0
200.142822	100.0
200.210739	152.0
200.28656	140.0
200.307541	132.0
200.474319	108.0
200.646652	120.0
200.808746	108.0
201.035522	572.0
201.278625	216.0
201.326157	180.0
201.946457	168.0
202.065948	124.0
202.429047	148.0
202.644318	180.0
202.939087	180.0
203.069534	184.0
203.890045	168.0
204.054916	188.0
204.911591	228.0
205.085419	140.0
205.407639	204.0
205.650177	144.0
206.096298	1148.0
207.103226	2492.0
207.174286	160.0
207.354813	248.0
207.389206	252.0
207.552612	180.0
208.112549	444.0
209.114731	376.0
211.045486	140.0
211.754318	144.0
212.055573	268.0
212.905701	184.0
212.926025	144.0
213.059647	168.0
213.179977	96.0
214.532211	164.0
214.561356	156.0
216.524246	128.0
217.38858	104.0
217.489609	188.0
217.580597	192.0
218.571106	176.0
219.395798	176.0
221.037979	144.0
221.757614	192.0
221.781326	176.0
221.816895	144.0
223.044128	188.0
223.584152	168.0
224.052551	1420.0
225.059464	5940.0
225.735062	164.0
226.062592	752.0
227.055435	536.0
228.061539	160.0
228.885849	144.0
231.852341	216.0
232.471649	132.0
235.146103	168.0
235.591904	144.0
237.055222	172.0
237.123398	132.0
237.253662	160.0
238.029922	140.0
238.064133	196.0
238.226486	156.0
238.589111	144.0
239.075104	500.0
239.595474	204.0
239.870316	152.0
239.898422	120.0
240.002319	148.0
240.04071	160.0
240.084961	62708.0
240.199127	196.0
240.426773	100.0
240.592331	232.0
240.742905	176.0
241.086136	8028.0
241.149399	132.0
242.043427	140.0
242.080521	2828.0
242.583862	196.0
242.844803	184.0
242.870697	96.0
243.019119	104.0
243.075699	600.0
243.204254	152.0
243.253906	160.0
245.350662	172.0
245.855972	168.0
246.361298	152.0
247.21225	152.0
247.245132	116.0
247.928009	172.0
249.05574	188.0
251.499146	188.0
252.194031	148.0
253.439133	136.0
254.713089	144.0
256.141327	184.0
257.838776	160.0
258.302368	140.0
260.157806	156.0
261.591553	160.0
261.646271	200.0
267.193481	180.0
267.258575	148.0
271.44397	136.0
274.230774	164.0
280.232208	168.0
281.636658	160.0
282.17804	140.0
282.681122	168.0
283.092987	192.0
283.13504	204.0
283.187439	304.0
283.319275	172.0
283.682983	152.0
283.895782	172.0
284.014526	140.0
284.044891	216.0
284.097046	96.0
284.178284	392.0
284.242126	132.0
284.270935	240.0
284.288849	192.0
284.325195	192.0
284.452576	156.0
284.656342	124.0
284.739288	140.0
284.791016	156.0
284.880493	200.0
284.956451	244.0
285.001801	144.0
285.071869	284.0
285.103027	408.0
285.143219	142652.0
285.272308	140.0
285.320587	136.0
285.354248	160.0
285.421478	152.0
285.455322	388.0
285.51355	212.0
285.559875	184.0
285.612457	120.0
285.653168	104.0
285.695038	2396.0
285.741028	168.0
285.793793	144.0
285.839813	124.0
285.979462	100.0
286.01947	188.0
286.062836	144.0
286.145691	35032.0
286.230377	208.0
286.273346	220.0
286.63913	132.0
286.743317	128.0
286.811249	160.0
286.854431	296.0
287.140869	8288.0
287.238251	164.0
287.388794	168.0
287.449036	116.0
287.64325	112.0
287.73056	132.0
287.793213	144.0
287.905121	132.0
287.967407	116.0
288.012756	148.0
288.055237	252.0
288.136566	900.0
288.179199	128.0
288.219604	204.0
288.257111	200.0
288.309296	244.0
288.34906	104.0
288.452301	176.0
288.938202	140.0
289.009796	104.0
289.105499	136.0
289.138458	132.0
292.276855	184.0
303.294556	144.0
305.729218	144.0
329.786743	148.0
330.795929	148.0
330.919037	160.0
932.528503	144.0
1398.801392	152.0
1436.464722	160.0
1492.867188	212.0
1572.802612	220.0
1631.353638	164.0
1652.69397	184.0
1694.332031	228.0
1728.361328	144.0
1810.597168	172.0
1812.062622	236.0
1831.448364	176.0
1835.760864	164.0
1842.143921	128.0
1844.589111	176.0
1886.859863	196.0
1902.584229	164.0
1908.709595	180.0
1910.962402	140.0
1916.020874	192.0
1919.734009	156.0
1940.580078	160.0
1952.592896	228.0
1970.734741	236.0
1989.865967	164.0
END IONS

BEGIN IONS
PEPMASS=315.149
CHARGE=1
MSLEVEL=2
SOURCE_INSTRUMENT=LC-ESI-qTof
FILENAME=NCP002928_A2_B11_BA2_01_15696.mzXML
SEQ=*..*
IONMODE=Positive
ORGANISM=GNPS-NIH-CLINICALCOLLECTION2
NAME=56131-49-8 [M+H]
PI=Dorrestein
DATACOLLECTOR=Garg_Neha
SMILES=N/A
INCHI=CN/C(=C\[N+](=O)[O-])/NCCSCc1ccc(CN(C)C)o1
INCHIAUX=N/A
PUBMED=N/A
SUBMITUSER=negarg
LIBRARYQUALITY=1
SPECTRUMID=CCMSLIB00000076960
SCANS=1004
45.198982	120.0
47.2216	160.0
52.314072	148.0
55.730988	148.0
58.669109	156.0
60.874081	140.0
64.42144	164.0
66.763519	212.0
72.3498	144.0
78.613365	156.0
80.058189	180.0
84.171844	208.0
84.270485	140.0
88.171631	152.0
91.642059	160.0
93.059357	160.0
93.484169	192.0
95.047485	200.0
97.076332	476.0
97.117416	160.0
98.021774	144.0
98.083786	904.0
99.055077	164.0
99.304825	164.0
100.111717	152.0
100.95787	156.0
101.028816	140.0
102.03756	1696.0
102.292145	168.0
103.035912	148.0
104.031624	336.0
104.874832	212.0
105.419754	196.0
105.992729	172.0
107.048485	480.0
108.053314	380.0
109.074104	144.0
109.088654	172.0
109.361153	156.0
110.058632	520.0
110.09726	524.0
111.068268	208.0
111.095627	184.0
114.081688	164.0
115.241081	156.0
117.046455	184.0
118.033264	172.0
118.537636	176.0
119.240768	216.0
120.076813	220.0
121.051506	188.0
121.078728	564.0
121.592995	164.0
122.065315	148.0
122.085106	324.0
123.025955	156.0
124.076439	2272.0
125.005928	2720.0
125.081184	188.0
126.008156	300.0
126.402168	152.0
126.500641	164.0
127.001724	284.0
128.095016	168.0
130.055618	2748.0
131.03334	160.0
131.058731	400.0
132.04747	208.0
133.056595	312.0
133.076126	240.0
134.053375	320.0
135.063522	144.0
135.094254	424.0
136.023941	164.0
137.084137	200.0
138.090698	1040.0
138.971542	188.0
138.999695	228.0
139.032547	144.0
139.095001	236.0
140.027924	204.0
140.833679	224.0
142.358902	148.0
144.075974	2180.0
145.092194	320.0
145.465195	160.0
147.016724	200.0
147.066238	344.0
148.077621	732.0
149.072037	576.0
150.097443	204.0
150.208252	168.0
150.576813	140.0
151.028976	156.0
151.98233	136.0
152.984726	156.0
153.035812	1640.0
154.052597	140.0
159.037857	348.0
160.053513	192.0
160.075806	220.0
161.036728	160.0
161.722244	232.0
162.355637	188.0
163.087326	284.0
163.12114	140.0
164.091263	476.0
165.10054	1048.0
165.13681	204.0
166.103027	316.0
167.063354	568.0
168.066818	196.0
169.049942	148.0
170.063797	1204.0
170.091843	180.0
170.348923	176.0
172.065659	176.0
172.480484	196.0
172.888489	176.0
173.388702	164.0
174.089172	156.0
174.998978	144.0
175.214951	176.0
175.583984	176.0
175.833099	236.0
175.971878	164.0
176.048538	17328.0
176.111847	180.0
176.50827	168.0
177.050049	512.0
177.101303	1128.0
178.045639	576.0
178.109879	348.0
179.047897	372.0
179.122787	140.0
181.053925	168.0
181.079468	392.0
182.089737	164.0
184.370728	148.0
188.05307	224.0
191.117569	1120.0
192.050369	124.0
192.117493	212.0
193.055389	284.0
194.065857	368.0
195.074478	156.0
196.048294	220.0
196.247177	140.0
197.112473	204.0
202.137589	212.0
204.313828	152.0
207.089554	116.0
210.092682	492.0
210.184677	176.0
215.120651	744.0
215.25882	196.0
216.460678	188.0
221.01442	168.0
223.063766	144.0
223.090225	156.0
224.097214	4044.0
225.099396	428.0
226.089203	140.0
227.103836	148.0
240.088791	284.0
240.600998	180.0
241.100967	292.0
242.103271	132.0
254.132263	208.0
258.190582	164.0
258.769745	168.0
268.538971	152.0
269.743835	140.0
270.090637	11596.0
270.155884	160.0
271.093384	1788.0
272.088257	1184.0
274.883911	160.0
276.943573	152.0
284.103912	144.0
294.373413	208.0
295.118317	156.0
295.703278	176.0
299.201141	184.0
301.978973	148.0
302.885834	152.0
310.519226	200.0
313.148193	160.0
313.366577	152.0
314.027832	132.0
314.220764	148.0
314.493622	136.0
314.523285	140.0
314.692749	168.0
315.074188	160.0
315.098907	312.0
315.148041	24244.0
315.226898	228.0
315.536133	152.0
315.639435	104.0
315.67215	168.0
316.152283	2520.0
316.222137	176.0
316.262054	332.0
316.331879	188.0
317.144409	1056.0
317.263977	124.0
318.140656	256.0
408.137085	168.0
1243.792114	188.0
1361.543823	168.0
1365.718384	228.0
1406.853149	140.0
1408.324219	144.0
1484.091064	196.0
1522.233521	148.0
1582.4104	164.0
1590.367554	176.0
1643.047974	140.0
1669.283081	168.0
1673.156006	164.0
1720.031616	160.0
1726.674683	176.0
1765.496948	224.0
1805.630249	148.0
1823.740479	148.0
1884.639648	176.0
1893.394043	192.0
1909.493408	192.0
1914.471436	176.0
1952.690796	160.0
1978.926147	140.0
END IONS

BEGIN IONS
PEPMASS=651.8
CHARGE=1
MSLEVEL=2
SOURCE_INSTRUMENT=LC-ESI-qTof
FILENAME=NCP002928_A2_B11_BA2_01_15696.mzXML
SEQ=*..*
IONMODE=Positive
ORGANISM=GNPS-NIH-CLINICALCOLLECTION2
NAME="3,5,3'-TRIIODOTHYRONINE" [M+H]
PI=Dorrestein
DATACOLLECTOR=Garg_Neha
SMILES=N/A
INCHI=NC(Cc1cc(I)c(Oc2ccc(O)c(I)c2)c(I)c1)C(=O)O
INCHIAUX=N/A
PUBMED=N/A
SUBMITUSER=negarg
LIBRARYQUALITY=1
SPECTRUMID=CCMSLIB00000076961
SCANS=1192
45.389187	160.0
46.716892	204.0
47.108143	160.0
48.52433	144.0
49.400333	172.0
49.804047	164.0
52.378864	160.0
53.595856	160.0
54.330627	112.0
55.607723	160.0
56.49284	140.0
57.400021	156.0
59.810368	152.0
62.80859	192.0
65.113403	148.0
65.211411	168.0
66.287865	208.0
66.693604	200.0
67.791183	120.0
68.716118	224.0
70.660049	224.0
71.112503	192.0
71.679253	220.0
71.69442	240.0
71.947433	176.0
74.31665	140.0
75.645432	160.0
85.361107	160.0
87.012985	212.0
88.482132	152.0
103.400261	192.0
105.656929	140.0
106.232597	188.0
107.011505	176.0
109.028366	156.0
112.07106	140.0
112.418983	164.0
112.995834	168.0
114.848267	172.0
116.047981	148.0
117.058754	920.0
117.840881	140.0
118.06282	188.0
120.024956	124.0
120.388885	168.0
121.678589	160.0
123.46122	180.0
124.291931	144.0
126.044373	160.0
127.431343	176.0
129.427505	176.0
130.341629	144.0
132.020874	176.0
132.042191	164.0
133.020676	216.0
133.698715	180.0
134.054749	200.0
136.095886	164.0
136.72818	188.0
138.238098	172.0
140.944687	164.0
141.066467	148.0
143.069824	152.0
143.369934	176.0
143.470047	160.0
143.667984	160.0
144.398926	148.0
145.06218	140.0
145.505997	148.0
146.092392	160.0
146.925949	204.0
148.154068	184.0
149.275421	184.0
150.359512	180.0
152.060974	260.0
156.057495	148.0
157.480453	204.0
160.013123	1548.0
160.3936	160.0
161.020691	300.0
161.71463	216.0
162.028625	156.0
164.592453	200.0
167.251038	176.0
167.431259	232.0
168.07933	176.0
168.610275	156.0
169.064926	392.0
169.085114	184.0
170.05484	128.0
170.076385	356.0
170.92868	168.0
173.501404	168.0
174.846283	164.0
178.079773	224.0
180.055634	796.0
180.365936	236.0
181.062775	604.0
181.715637	184.0
182.066788	188.0
182.096832	148.0
183.073257	180.0
184.051468	2976.0
184.670288	124.0
185.055115	648.0
186.055298	104.0
187.271011	144.0
188.244644	200.0
190.930298	156.0
191.106354	144.0
196.073975	676.0
196.266678	156.0
196.648865	192.0
197.059525	4008.0
197.199081	296.0
197.794861	148.0
198.039444	148.0
198.067993	11472.0
198.352295	252.0
198.652328	196.0
199.069214	1424.0
199.094177	512.0
199.123901	160.0
200.072403	220.0
200.366592	168.0
202.075317	200.0
206.055756	124.0
206.444504	224.0
206.928177	240.0
207.065598	264.0
207.469559	188.0
208.048569	1080.0
208.079926	164.0
208.931335	144.0
209.058578	408.0
209.083832	208.0
210.065247	1832.0
211.04129	1028.0
212.047607	2124.0
213.049774	192.0
213.095718	136.0
214.473999	204.0
216.255722	188.0
216.689117	140.0
216.950409	2252.0
217.922928	152.0
217.947601	320.0
218.64183	156.0
218.959793	172.0
219.93663	2340.0
220.934235	124.0
222.356827	172.0
223.059616	288.0
224.001099	196.0
224.070358	3024.0
225.006104	164.0
225.077499	10668.0
226.066238	2248.0
226.372543	200.0
226.461914	100.0
226.541077	144.0
227.066895	380.0
227.343826	140.0
227.785187	140.0
228.068237	184.0
230.668991	196.0
230.95639	176.0
231.940918	276.0
232.946304	3568.0
233.953003	316.0
234.924942	1548.0
235.094315	148.0
235.928177	312.0
235.970444	184.0
236.044662	312.0
236.54306	172.0
237.055069	500.0
237.965546	204.0
238.06073	140.0
239.038284	176.0
239.133682	212.0
240.949966	160.0
242.459991	156.0
242.951401	652.0
243.903229	140.0
243.961044	720.0
244.223495	208.0
244.968964	280.0
245.916733	260.0
245.941071	1172.0
246.917969	272.0
253.050568	272.0
254.011673	156.0
254.056595	6016.0
254.112381	136.0
254.209824	112.0
255.059219	1188.0
256.06134	104.0
257.06604	156.0
257.953949	164.0
258.929108	240.0
259.956421	1264.0
260.055206	152.0
260.956116	384.0
261.968445	152.0
263.210144	164.0
263.930969	188.0
264.305939	156.0
267.971741	148.0
272.944702	196.0
273.94751	180.0
275.942596	152.0
276.955414	176.0
282.365417	156.0
283.617645	192.0
286.918152	1676.0
287.926575	772.0
287.976379	96.0
288.933258	296.0
289.114288	148.0
293.169159	160.0
294.974701	148.0
295.968567	744.0
296.976685	172.0
297.012115	152.0
301.698853	144.0
305.94516	156.0
306.960083	1444.0
307.963745	656.0
308.002594	160.0
308.97644	256.0
309.664001	204.0
309.946503	280.0
311.839325	176.0
320.093018	152.0
320.9375	144.0
322.956299	1784.0
323.628021	156.0
323.961395	932.0
324.971069	6776.0
325.056976	136.0
325.9758	632.0
326.979065	192.0
329.396637	192.0
330.727325	176.0
330.839905	156.0
332.354492	176.0
333.969574	128.0
334.614319	224.0
334.957214	1236.0
335.074127	156.0
335.912628	180.0
335.965271	1228.0
336.966431	400.0
338.951996	472.0
339.95108	236.0
341.965881	160.0
344.832947	228.0
346.830353	144.0
349.965027	380.0
350.974335	2476.0
351.980347	2864.0
352.967255	1444.0
353.830109	140.0
353.96991	276.0
354.966003	128.0
355.9711	168.0
356.365479	144.0
358.838226	588.0
359.853943	124.0
362.266052	144.0
362.952179	1724.0
363.960693	312.0
364.25	184.0
364.960999	100.0
366.97937	184.0
367.94635	112.0
370.86499	700.0
371.875336	364.0
372.81485	268.0
374.335754	152.0
374.667023	164.0
379.971893	160.0
380.960144	864.0
381.963257	328.0
386.204193	180.0
386.836823	360.0
387.856567	140.0
392.542969	152.0
396.0802	168.0
398.826019	216.0
401.130768	176.0
401.844604	168.0
402.399384	156.0
402.794739	216.0
414.838623	436.0
415.835724	192.0
416.250336	124.0
419.856537	152.0
421.338226	176.0
421.992157	156.0
422.869202	152.0
425.745636	176.0
427.826172	140.0
428.670532	212.0
432.751587	144.0
433.870209	140.0
437.861359	3028.0
438.867615	564.0
443.537109	144.0
448.854706	376.0
449.0112	136.0
449.853638	220.0
450.793335	288.0
450.868866	9956.0
451.26709	100.0
451.875336	7680.0
452.875	824.0
453.880676	184.0
454.881866	124.0
456.329163	204.0
456.733154	220.0
461.684906	172.0
461.86441	1368.0
462.763245	168.0
462.868835	1348.0
463.875977	452.0
464.841217	256.0
464.923645	188.0
465.854919	6200.0
465.937012	200.0
466.581665	180.0
466.859589	880.0
467.866669	284.0
468.078979	172.0
468.807007	148.0
469.379974	100.0
471.206085	156.0
472.827667	148.0
475.822937	148.0
476.830261	192.0
477.745453	120.0
477.878021	1852.0
478.061462	280.0
478.244263	172.0
478.887543	35716.0
479.009094	240.0
479.063934	136.0
479.519501	208.0
479.73526	124.0
479.775421	120.0
479.889404	4080.0
480.004333	156.0
480.396454	100.0
480.88562	564.0
482.073486	140.0
482.217682	160.0
482.570038	140.0
484.633301	180.0
485.444214	188.0
486.532379	172.0
489.856171	444.0
490.837128	204.0
490.870361	176.0
491.871002	120.0
492.693573	156.0
494.497711	156.0
502.98291	160.0
503.304352	140.0
504.858826	152.0
505.333557	144.0
505.870728	172.0
506.340759	172.0
506.874084	420.0
507.574402	140.0
507.778076	140.0
507.866272	16328.0
508.0466	156.0
508.869232	2804.0
509.871063	428.0
511.305847	96.0
511.554626	148.0
511.735199	120.0
524.899414	468.0
525.886841	168.0
537.580872	148.0
545.910156	144.0
547.883667	164.0
557.452209	180.0
561.878235	156.0
563.809448	140.0
565.365356	188.0
567.724609	148.0
575.108582	176.0
576.047302	140.0
577.731934	140.0
579.359619	152.0
582.588257	148.0
588.764954	332.0
589.765808	136.0
592.541077	168.0
592.75824	5412.0
592.865845	164.0
593.759705	1172.0
594.762756	272.0
595.636108	188.0
596.243042	128.0
597.104004	140.0
600.942566	184.0
601.572144	168.0
602.162964	160.0
603.582642	128.0
603.756226	156.0
604.08844	104.0
604.41394	124.0
604.773621	128.0
604.862671	172.0
604.999634	128.0
605.062683	268.0
605.505432	252.0
605.593018	100.0
605.656677	268.0
605.792419	97080.0
605.997437	308.0
606.084717	168.0
606.279419	104.0
606.43103	220.0
606.467163	100.0
606.519653	168.0
606.685181	96.0
606.794556	15128.0
606.9375	168.0
607.010559	104.0
607.338501	140.0
607.394531	128.0
607.450562	124.0
607.522339	148.0
607.568787	248.0
607.70282	172.0
607.790955	1492.0
608.375916	116.0
608.604248	120.0
608.788269	196.0
608.848145	220.0
609.194885	132.0
609.80127	148.0
610.012634	108.0
610.222595	152.0
610.29541	212.0
610.372986	96.0
610.434753	108.0
610.779297	236.0
611.222534	232.0
616.779053	248.0
617.75177	228.0
634.683655	140.0
634.771912	7000.0
635.774902	1536.0
636.769104	236.0
638.414673	180.0
640.241455	148.0
644.216064	152.0
646.8172	116.0
647.962891	160.0
648.015503	140.0
648.394836	148.0
649.181335	200.0
649.796875	136.0
650.429443	192.0
650.700806	112.0
650.822021	216.0
651.116943	204.0
651.188843	112.0
651.361023	248.0
651.467102	144.0
651.517578	112.0
651.797668	73008.0
652.629028	160.0
652.799133	12756.0
653.049744	160.0
653.708679	132.0
653.799622	1292.0
653.895142	268.0
654.06134	148.0
654.805298	248.0
654.95343	160.0
655.275879	180.0
655.716492	136.0
655.822388	164.0
656.341064	152.0
656.470886	144.0
656.826477	120.0
656.943909	148.0
658.017761	184.0
660.578125	116.0
669.810059	304.0
670.803894	104.0
671.792908	120.0
676.326233	144.0
692.833679	196.0
693.82196	176.0
750.677856	172.0
839.317017	120.0
1353.096313	148.0
1641.216919	168.0
1745.075317	144.0
1761.793945	140.0
1778.289917	200.0
1800.094604	160.0
1841.923828	148.0
1853.190796	152.0
1866.168457	144.0
1888.53833	164.0
1901.031372	144.0
END IONS
 
