NAME: 2,3-Dihydroxybiphenyl
PRECURSORMZ: 185.06080310983
PRECURSORTYPE: [M-H]-
FORMULA: C12H10O2
Ontology: Biphenyls and derivatives
INCHIKEY: YKOQAAJBYBTSBS-UHFFFAOYSA-N
SMILES: C1=CC=C(C=C1)C=2C=CC=C(C2O)O
IONMODE: Negative
INSTRUMENTTYPE: LC-ESI-QFT
INSTRUMENT: Q Exactive Plus Orbitrap Thermo Scientific
COLLISIONENERGY: 35  (nominal)
Comment: DB#=SM800553; origin=CASMI2016
Num Peaks: 2
184.05299	30
185.06081	1000

NAME: 2,4-Dibromphenol
PRECURSORMZ: 248.85561454783
PRECURSORTYPE: [M-H]-
FORMULA: C6H4Br2O
Ontology: P-bromophenols
INCHIKEY: FAXWFCTVSHEODL-UHFFFAOYSA-N
SMILES: C1=CC(=C(C=C1Br)Br)O
IONMODE: Negative
INSTRUMENTTYPE: LC-ESI-QFT
INSTRUMENT: Q Exactive Plus Orbitrap Thermo Scientific
COLLISIONENERGY: 35  (nominal)
Comment: DB#=SM800653; origin=CASMI2016
Num Peaks: 2
168.9295	10
248.8557	1000

NAME: 4-Phenoxyphenol
PRECURSORMZ: 185.06080310983
PRECURSORTYPE: [M-H]-
FORMULA: C12H10O2
Ontology: Diphenylethers
INCHIKEY: ZSBDGXGICLIJGD-UHFFFAOYSA-N
SMILES: C1=CC=C(C=C1)OC2=CC=C(C=C2)O
IONMODE: Negative
INSTRUMENTTYPE: LC-ESI-QFT
INSTRUMENT: Q Exactive Plus Orbitrap Thermo Scientific
COLLISIONENERGY: 35  (nominal)
Comment: DB#=SM802253; origin=CASMI2016
Num Peaks: 2
184.05299	30
185.06081	1000
 
