Name: methyl 2-acetamido-2-deoxy-?-D-glucopyranoside
SYNON: $:00in-source
SYNON: $:04
SYNON: $:056
SYNON: $:06TOF
SYNON: $:07waters xevo g2 TOF
SYNON: $:09water acquity
SYNON: $:10ESI
SYNON: $:11Pos
SYNON: $:12Ar
SYNON: $:1450:1200
SYNON: $:1630
Formula: C9H17NO6
ExactMass:  235.105587264
Comment: Rt=49.88  Contributor=Colorado State University Proteomics and Metabolomics Facility  Study=C8v0.5
Num Peaks: 56
84.045 57 96.0446 57 96.0445 57 126.055 4534 126.054 57 137.5332 1693 137.534 1256 138.055 40826 138.0549 19234 139.0569 1933 139.058 2814 144.0655 10485 144.0652 4387 146.5394 1896 146.5394 1145 158.047 3404 168.0651 18912 186.0765 15436 187.08 2087 195.0661 2262 204.0855 47890 205.0903 3502 236.1123 2921 238.9863 1761 238.9871 3125 242.1205 1042 242.1194 1305 255.0852 7413 255.0867 4131 258.0945 60208 259.0981 5482 260.0998 1383 274.0628 1261 290.0321 1471 303.0047 4259 303.0026 2902 320.0635 2994 320.0651 3610 335.03 6178 336.0375 1758 372.6384 4414 373.1424 2952 373.141 1313 373.6439 1163 399.0945 1409 399.5968 1891 477.2261 1434 493.2002 7126 493.2005 30420 494.2062 2834 494.2079 3655 524.13 4993 525.1374 1853 525.139 4437 527.1361 1444 555.1728 1232

Name: methyl 2-acetamido-2-deoxy-?-D-glucopyranoside
SYNON: $:00in-source
SYNON: $:04
SYNON: $:0515:30
SYNON: $:06TOF
SYNON: $:07waters xevo g2 TOF
SYNON: $:09water acquity
SYNON: $:10ESI
SYNON: $:11Pos
SYNON: $:12Ar
SYNON: $:1450:1200
SYNON: $:1630
Formula: C9H17NO6
ExactMass:  235.105587264
Comment: Rt=49.88  Contributor=Colorado State University Proteomics and Metabolomics Facility  Study=C8v0.5
Num Peaks: 56
84.045 1188 96.0446 3323 96.0445 11718 126.055 6101 126.054 2587 137.5332 57 137.534 57 138.055 23709 138.0549 8901 139.0569 345 139.058 1240 144.0655 5946 144.0652 1703 146.5394 57 146.5394 57 158.047 57 168.0651 1090 186.0765 593 187.08 57 195.0661 57 204.0855 1075 205.0903 57 236.1123 57 238.9863 1639 238.9871 1182 242.1205 2231 242.1194 1771 255.0852 844 255.0867 490 258.0945 14535 259.0981 1806 260.0998 57 274.0628 515 290.0321 57 303.0047 57 303.0026 57 320.0635 253 320.0651 57 335.03 57 336.0375 57 372.6384 57 373.1424 57 373.141 57 373.6439 57 399.0945 57 399.5968 57 477.2261 57 493.2002 57 493.2005 57 494.2062 57 494.2079 57 524.13 57 525.1374 57 525.139 57 527.1361 57 555.1728 57

Name: 2-Deoxy-D-Ribose
SYNON: $:00in-source
SYNON: $:04
SYNON: $:056
SYNON: $:06TOF
SYNON: $:07waters xevo g2 TOF
SYNON: $:09water acquity
SYNON: $:10ESI
SYNON: $:11Pos
SYNON: $:12Ar
SYNON: $:1450:1200
SYNON: $:1630
Formula: C5H10O4
ExactMass:  134.0579088
Comment: Rt=32.71  Contributor=Colorado State University Proteomics and Metabolomics Facility  Study=C8v0.5
Num Peaks: 20
81.0348 924 96.9621 5093 97.9701 2334 98.9769 748 99.0454 2341 113.9412 91 117.0562 1863 124.9918 846 139.9578 91 145.0347 4038 154.0403 5729 157.0484 27356 157.9673 2454 187.9784 6216 189.0748 1900 219.019 4707 229.9879 3917 247.9992 10343 273.0964 8095 274.015 2621

